Welcome to the CBC MILP Solver 
Version: 2.10.7 
Build Date: Feb 14 2022 

command line - cbc inputs/new_no_tr/order/default80_tiers_input.lp sec 1800 solve solu solutions/new_no_tr/default80_tiers_input.lp (default strategy 1)
### CoinLpIO::is_invalid_name(): Name 216 should not start with a number
### CoinLpIO::are_invalid_names(): Invalid name: vnames[7197]: 216
### CoinLpIO::readLp(): Invalid column names
Now using default column names.
seconds was changed from 1e+100 to 1800
Continuous objective value is 44925.5 - 92.81 seconds
Cgl0002I 403 variables fixed
Cgl0003I 0 fixed, 65 tightened bounds, 4270 strengthened rows, 0 substitutions
Cgl0003I 0 fixed, 66 tightened bounds, 1586 strengthened rows, 0 substitutions
Cgl0003I 0 fixed, 51 tightened bounds, 1108 strengthened rows, 0 substitutions
Cgl0003I 0 fixed, 39 tightened bounds, 777 strengthened rows, 0 substitutions
Cgl0003I 0 fixed, 36 tightened bounds, 602 strengthened rows, 0 substitutions
Cgl0003I 0 fixed, 19 tightened bounds, 372 strengthened rows, 0 substitutions
Cgl0003I 0 fixed, 32 tightened bounds, 500 strengthened rows, 0 substitutions
Cgl0003I 0 fixed, 23 tightened bounds, 354 strengthened rows, 0 substitutions
Cgl0003I 0 fixed, 15 tightened bounds, 211 strengthened rows, 0 substitutions
Cgl0004I processed model has 28301 rows, 8049 columns (8049 integer (7968 of which binary)) and 96234 elements
Cutoff increment increased from 1e-05 to 0.9999
Cbc0045I 1 integer variables out of 8049 objects (8049 integer) have cost of 1 - high priority
Cbc0045I branch on satisfied Y create fake objective Y random cost Y
Cbc0038I Initial state - 4420 integers unsatisfied sum - 1391.87
Cbc0038I Pass   1: (351.40 seconds) suminf.  139.16297 (980) obj. 68811.5 iterations 38662
Cbc0038I Pass   2: (362.34 seconds) suminf.   37.16314 (433) obj. 66207.2 iterations 14705
Cbc0038I Pass   3: (362.66 seconds) suminf.   35.56087 (445) obj. 66211.4 iterations 438
Cbc0038I Pass   4: (363.03 seconds) suminf.   35.00260 (438) obj. 66212.3 iterations 478
Cbc0038I Pass   5: (364.66 seconds) suminf.   26.83840 (394) obj. 66560 iterations 1910
Cbc0038I Pass   6: (365.94 seconds) suminf.   23.87356 (401) obj. 66560 iterations 1646
Cbc0038I Pass   7: (365.97 seconds) suminf.   23.87356 (401) obj. 66560 iterations 4
Cbc0038I Pass   8: (369.80 seconds) suminf.   22.78233 (381) obj. 66560 iterations 5018
Cbc0038I Pass   9: (376.88 seconds) suminf.   20.49860 (348) obj. 66560 iterations 7451
Cbc0038I Pass  10: (377.34 seconds) suminf.   20.01678 (346) obj. 66560 iterations 633
Cbc0038I Pass  11: (377.80 seconds) suminf.   17.16059 (330) obj. 73395.6 iterations 727
Cbc0038I Pass  12: (378.08 seconds) suminf.   16.57206 (330) obj. 73679.2 iterations 348
Cbc0038I Pass  13: (381.97 seconds) suminf.   14.92983 (330) obj. 79963.2 iterations 4305
Cbc0038I Pass  14: (382.05 seconds) suminf.   14.15384 (325) obj. 79745.8 iterations 156
Cbc0038I Pass  15: (382.82 seconds) suminf.   15.34382 (295) obj. 71403.8 iterations 1612
Cbc0038I Pass  16: (382.84 seconds) suminf.   15.34382 (295) obj. 71403.8 iterations 7
Cbc0038I Pass  17: (383.19 seconds) suminf.   12.02268 (289) obj. 66812.6 iterations 624
Cbc0038I Pass  18: (383.21 seconds) suminf.   11.61094 (288) obj. 66813 iterations 10
Cbc0038I Pass  19: (384.23 seconds) suminf.   12.72541 (256) obj. 82053.7 iterations 2128
Cbc0038I Pass  20: (384.51 seconds) suminf.   11.49547 (275) obj. 82007.1 iterations 477
Cbc0038I Pass  21: (384.56 seconds) suminf.    9.64204 (275) obj. 82009.7 iterations 78
Cbc0038I Pass  22: (384.76 seconds) suminf.    9.36390 (268) obj. 81928.3 iterations 371
Cbc0038I Pass  23: (385.13 seconds) suminf.   11.28882 (289) obj. 81919.3 iterations 858
Cbc0038I Pass  24: (385.22 seconds) suminf.   11.21115 (284) obj. 81919.4 iterations 191
Cbc0038I Pass  25: (385.81 seconds) suminf.    8.32837 (262) obj. 81882.1 iterations 1122
Cbc0038I Pass  26: (385.86 seconds) suminf.    8.38954 (257) obj. 81882.2 iterations 91
Cbc0038I Pass  27: (385.95 seconds) suminf.    7.21273 (247) obj. 81788.9 iterations 194
Cbc0038I Pass  28: (386.03 seconds) suminf.    7.17478 (239) obj. 81786.7 iterations 200
Cbc0038I Pass  29: (386.31 seconds) suminf.    5.13327 (183) obj. 81813.2 iterations 332
Cbc0038I Pass  30: (386.34 seconds) suminf.    5.13327 (183) obj. 81813.2 iterations 20
Cbc0038I Pass  31: (386.44 seconds) suminf.    4.55548 (159) obj. 81812.7 iterations 166
Cbc0038I Pass  32: (386.48 seconds) suminf.    4.54207 (158) obj. 81812.7 iterations 34
Cbc0038I Pass  33: (387.73 seconds) suminf.    3.70789 (150) obj. 81812.7 iterations 1990
Cbc0038I Pass  34: (387.76 seconds) suminf.    3.60172 (147) obj. 81812.7 iterations 31
Cbc0038I Pass  35: (402.64 seconds) suminf.    2.53966 (144) obj. 76714.1 iterations 23180
Cbc0038I Pass  36: (402.67 seconds) suminf.    2.53966 (144) obj. 76714.1 iterations 11
Cbc0038I Pass  37: (402.72 seconds) suminf.    1.76389 (120) obj. 76800 iterations 105
Cbc0038I Pass  38: (403.26 seconds) suminf.    0.95717 (72) obj. 76800 iterations 671
Cbc0038I Pass  39: (418.14 seconds) suminf.    0.28911 (9) obj. 76800 iterations 15574
Cbc0038I Pass  40: (418.20 seconds) suminf.    0.28911 (9) obj. 76800 iterations 31
Cbc0038I Pass  41: (418.32 seconds) suminf.    0.00000 (0) obj. 76800 iterations 105
Cbc0038I Solution found of 76800
Cbc0038I Cleaned solution of 76800
Cbc0038I Before mini branch and bound, 3413 integers at bound fixed and 0 continuous
Cbc0038I Mini branch and bound did not improve solution (421.64 seconds)
Cbc0038I Round again with cutoff of 73617.5
Cbc0038I Pass  42: (421.67 seconds) suminf.  139.16297 (980) obj. 68811.5 iterations 0
Cbc0038I Pass  43: (433.77 seconds) suminf.   37.16314 (433) obj. 66207.2 iterations 16893
Cbc0038I Pass  44: (434.17 seconds) suminf.   35.56087 (445) obj. 66211.4 iterations 531
Cbc0038I Pass  45: (434.60 seconds) suminf.   35.00260 (438) obj. 66212.3 iterations 525
Cbc0038I Pass  46: (436.77 seconds) suminf.   24.01836 (380) obj. 66560 iterations 3173
Cbc0038I Pass  47: (436.85 seconds) suminf.   22.76357 (377) obj. 66560 iterations 121
Cbc0038I Pass  48: (437.19 seconds) suminf.   20.14464 (355) obj. 66560 iterations 424
Cbc0038I Pass  49: (437.22 seconds) suminf.   20.14464 (355) obj. 66560 iterations 42
Cbc0038I Pass  50: (437.55 seconds) suminf.   18.68430 (323) obj. 67759 iterations 472
Cbc0038I Pass  51: (437.60 seconds) suminf.   18.79399 (322) obj. 68847.3 iterations 47
Cbc0038I Pass  52: (440.29 seconds) suminf.   17.71130 (337) obj. 66560 iterations 3955
Cbc0038I Pass  53: (440.35 seconds) suminf.   16.37526 (337) obj. 66560 iterations 51
Cbc0038I Pass  54: (440.45 seconds) suminf.   16.25128 (337) obj. 66560 iterations 193
Cbc0038I Pass  55: (440.78 seconds) suminf.   16.28623 (328) obj. 73617.5 iterations 561
Cbc0038I Pass  56: (440.92 seconds) suminf.   14.87795 (323) obj. 73617.5 iterations 173
Cbc0038I Pass  57: (441.92 seconds) suminf.   15.97392 (303) obj. 73617.5 iterations 1463
Cbc0038I Pass  58: (441.97 seconds) suminf.   15.76768 (303) obj. 73617.5 iterations 45
Cbc0038I Pass  59: (442.21 seconds) suminf.   13.10460 (295) obj. 73617.5 iterations 429
Cbc0038I Pass  60: (442.26 seconds) suminf.   13.01107 (301) obj. 73617.5 iterations 54
Cbc0038I Pass  61: (442.76 seconds) suminf.   14.74463 (287) obj. 73617.5 iterations 852
Cbc0038I Pass  62: (443.24 seconds) suminf.   14.44160 (278) obj. 73617.5 iterations 607
Cbc0038I Pass  63: (444.40 seconds) suminf.   13.14446 (294) obj. 73617.5 iterations 1760
Cbc0038I Pass  64: (444.61 seconds) suminf.   12.62881 (283) obj. 73617.5 iterations 249
Cbc0038I Pass  65: (450.04 seconds) suminf.   14.24262 (295) obj. 73617.5 iterations 7113
Cbc0038I Pass  66: (450.30 seconds) suminf.   13.84954 (292) obj. 73617.5 iterations 316
Cbc0038I Pass  67: (451.01 seconds) suminf.   12.29456 (286) obj. 73617.5 iterations 999
Cbc0038I Pass  68: (451.04 seconds) suminf.   12.27209 (289) obj. 73617.5 iterations 17
Cbc0038I Pass  69: (451.88 seconds) suminf.   12.10588 (265) obj. 73617.5 iterations 1116
Cbc0038I Pass  70: (452.08 seconds) suminf.   11.20886 (273) obj. 73617.5 iterations 344
Cbc0038I Pass  71: (452.38 seconds) suminf.   13.59566 (277) obj. 73617.5 iterations 473
Cbc0038I Pass  72: (452.47 seconds) suminf.   12.81697 (288) obj. 73617.5 iterations 133
Cbc0038I Pass  73: (454.18 seconds) suminf.   11.94414 (266) obj. 73617.5 iterations 2480
Cbc0038I Pass  74: (454.39 seconds) suminf.   11.56852 (272) obj. 73617.5 iterations 323
Cbc0038I Pass  75: (454.74 seconds) suminf.   10.66602 (272) obj. 73617.5 iterations 465
Cbc0038I Pass  76: (454.80 seconds) suminf.   10.48650 (278) obj. 73617.5 iterations 75
Cbc0038I Pass  77: (455.12 seconds) suminf.   12.38306 (268) obj. 73617.5 iterations 412
Cbc0038I Pass  78: (456.35 seconds) suminf.   25.28345 (329) obj. 73617.5 iterations 2384
Cbc0038I Pass  79: (461.08 seconds) suminf.   14.17011 (295) obj. 73617.5 iterations 6248
Cbc0038I Pass  80: (466.49 seconds) suminf.   11.29880 (273) obj. 73617.5 iterations 9187
Cbc0038I Pass  81: (466.52 seconds) suminf.   11.13034 (275) obj. 73617.5 iterations 25
Cbc0038I Pass  82: (467.26 seconds) suminf.   10.06329 (273) obj. 73617.5 iterations 1178
Cbc0038I Pass  83: (467.29 seconds) suminf.   10.06329 (273) obj. 73617.5 iterations 14
Cbc0038I Pass  84: (467.69 seconds) suminf.   11.49001 (277) obj. 73617.5 iterations 609
Cbc0038I Pass  85: (467.73 seconds) suminf.   11.45867 (279) obj. 73617.5 iterations 28
Cbc0038I Pass  86: (471.57 seconds) suminf.   11.90132 (271) obj. 73617.5 iterations 5348
Cbc0038I Pass  87: (471.77 seconds) suminf.   10.47570 (251) obj. 73617.5 iterations 248
Cbc0038I Pass  88: (472.43 seconds) suminf.    9.35656 (228) obj. 73617.5 iterations 1106
Cbc0038I Pass  89: (472.48 seconds) suminf.    9.24127 (231) obj. 73617.5 iterations 50
Cbc0038I Pass  90: (475.59 seconds) suminf.   10.25445 (239) obj. 73617.5 iterations 4327
Cbc0038I Pass  91: (475.68 seconds) suminf.    8.99476 (233) obj. 73617.5 iterations 130
Cbc0038I Pass  92: (476.07 seconds) suminf.    7.84157 (228) obj. 73617.5 iterations 626
Cbc0038I Pass  93: (476.10 seconds) suminf.    7.72629 (231) obj. 73617.5 iterations 30
Cbc0038I Pass  94: (476.28 seconds) suminf.    8.72702 (240) obj. 73617.5 iterations 287
Cbc0038I Pass  95: (476.31 seconds) suminf.    8.69567 (240) obj. 73617.5 iterations 41
Cbc0038I Pass  96: (476.84 seconds) suminf.    7.22760 (219) obj. 73617.5 iterations 810
Cbc0038I Pass  97: (476.87 seconds) suminf.    7.04695 (217) obj. 73617.5 iterations 20
Cbc0038I Pass  98: (478.15 seconds) suminf.    6.07415 (221) obj. 73617.5 iterations 2101
Cbc0038I Pass  99: (478.26 seconds) suminf.    6.02048 (217) obj. 73617.5 iterations 171
Cbc0038I Pass 100: (478.39 seconds) suminf.    5.77291 (211) obj. 73617.5 iterations 185
Cbc0038I Pass 101: (478.60 seconds) suminf.    5.57718 (205) obj. 73617.5 iterations 384
Cbc0038I Pass 102: (478.64 seconds) suminf.    5.53492 (194) obj. 73617.5 iterations 45
Cbc0038I Pass 103: (478.82 seconds) suminf.    5.02153 (199) obj. 73617.5 iterations 216
Cbc0038I Pass 104: (478.85 seconds) suminf.    5.02153 (199) obj. 73617.5 iterations 9
Cbc0038I Pass 105: (479.22 seconds) suminf.    5.30843 (180) obj. 73617.5 iterations 640
Cbc0038I Pass 106: (479.26 seconds) suminf.    5.29343 (180) obj. 73617.5 iterations 59
Cbc0038I Pass 107: (479.46 seconds) suminf.    4.52593 (176) obj. 73617.5 iterations 314
Cbc0038I Pass 108: (479.50 seconds) suminf.    4.52593 (176) obj. 73617.5 iterations 33
Cbc0038I Pass 109: (479.57 seconds) suminf.    4.75553 (168) obj. 73617.5 iterations 93
Cbc0038I Pass 110: (479.61 seconds) suminf.    4.47817 (168) obj. 73617.5 iterations 24
Cbc0038I Pass 111: (479.79 seconds) suminf.    4.18928 (152) obj. 73617.5 iterations 304
Cbc0038I Pass 112: (479.82 seconds) suminf.    4.18323 (153) obj. 73617.5 iterations 7
Cbc0038I Pass 113: (480.40 seconds) suminf.    3.57696 (113) obj. 73617.5 iterations 714
Cbc0038I Pass 114: (480.49 seconds) suminf.    3.37277 (117) obj. 73617.5 iterations 144
Cbc0038I Pass 115: (482.96 seconds) suminf.    6.70819 (101) obj. 73617.5 iterations 2762
Cbc0038I Pass 116: (487.69 seconds) suminf.    4.44065 (105) obj. 73617.5 iterations 5909
Cbc0038I Pass 117: (490.76 seconds) suminf.    3.59537 (106) obj. 73617.5 iterations 5366
Cbc0038I Pass 118: (498.97 seconds) suminf.    1.80038 (45) obj. 73617.5 iterations 9398
Cbc0038I Pass 119: (499.01 seconds) suminf.    1.80038 (45) obj. 73617.5 iterations 29
Cbc0038I Pass 120: (507.78 seconds) suminf.    1.84396 (56) obj. 73617.5 iterations 11682
Cbc0038I Pass 121: (507.85 seconds) suminf.    1.77530 (38) obj. 73617.5 iterations 58
Cbc0038I Pass 122: (520.82 seconds) suminf.    0.87951 (24) obj. 73617.5 iterations 12128
Cbc0038I Pass 123: (520.86 seconds) suminf.    0.87951 (24) obj. 73617.5 iterations 26
Cbc0038I Pass 124: (520.99 seconds) suminf.    1.22910 (17) obj. 73617.5 iterations 110
Cbc0038I Pass 125: (521.10 seconds) suminf.    0.61883 (13) obj. 73617.5 iterations 67
Cbc0038I Pass 126: (521.17 seconds) suminf.    0.61883 (13) obj. 73617.5 iterations 31
Cbc0038I Pass 127: (521.26 seconds) suminf.    0.53005 (4) obj. 73617.5 iterations 64
Cbc0038I Pass 128: (521.28 seconds) suminf.    0.53005 (4) obj. 73617.5 iterations 3
Cbc0038I Pass 129: (526.79 seconds) suminf.    6.90682 (77) obj. 73617.5 iterations 6168
Cbc0038I Pass 130: (529.09 seconds) suminf.    1.95152 (15) obj. 73617.5 iterations 1897
Cbc0038I Pass 131: (529.19 seconds) suminf.    0.53005 (4) obj. 73617.5 iterations 69
Cbc0038I Pass 132: (529.22 seconds) suminf.    0.53005 (4) obj. 73617.5 iterations 5
Cbc0038I Pass 133: (534.78 seconds) suminf.    1.56808 (42) obj. 73617.5 iterations 5255
Cbc0038I Pass 134: (536.61 seconds) suminf.    0.94517 (20) obj. 73617.5 iterations 1695
Cbc0038I Pass 135: (537.37 seconds) suminf.    1.61892 (29) obj. 73617.5 iterations 676
Cbc0038I Pass 136: (538.53 seconds) suminf.    1.19113 (24) obj. 73617.5 iterations 913
Cbc0038I Pass 137: (538.68 seconds) suminf.    1.19113 (24) obj. 73617.5 iterations 134
Cbc0038I Pass 138: (539.15 seconds) suminf.    0.53005 (4) obj. 73617.5 iterations 374
Cbc0038I Pass 139: (539.20 seconds) suminf.    0.53005 (4) obj. 73617.5 iterations 18
Cbc0038I Pass 140: (539.22 seconds) suminf.    0.53005 (4) obj. 73617.5 iterations 4
Cbc0038I Pass 141: (546.18 seconds) suminf.   21.86373 (141) obj. 73617.5 iterations 8947
Cbc0038I Rounding solution of 73617 is better than previous of 76800

Cbc0038I Before mini branch and bound, 3078 integers at bound fixed and 0 continuous
Cbc0038I Mini branch and bound did not improve solution (546.22 seconds)
Cbc0038I Round again with cutoff of 67889.6
Cbc0038I Pass 141: (546.33 seconds) suminf.  139.75771 (983) obj. 67889 iterations 49
Cbc0038I Pass 142: (561.54 seconds) suminf.   36.98418 (432) obj. 67889 iterations 21594
Cbc0038I Pass 143: (561.74 seconds) suminf.   35.18598 (444) obj. 67889 iterations 306
Cbc0038I Pass 144: (561.99 seconds) suminf.   34.74773 (437) obj. 67889 iterations 433
Cbc0038I Pass 145: (566.25 seconds) suminf.   24.77194 (384) obj. 67889 iterations 6041
Cbc0038I Pass 146: (566.47 seconds) suminf.   24.67127 (382) obj. 67889 iterations 337
Cbc0038I Pass 147: (568.62 seconds) suminf.   21.97963 (384) obj. 67889 iterations 3212
Cbc0038I Pass 148: (568.66 seconds) suminf.   21.99668 (389) obj. 67889 iterations 47
Cbc0038I Pass 149: (572.11 seconds) suminf.   19.64243 (335) obj. 67889 iterations 4329
Cbc0038I Pass 150: (573.50 seconds) suminf.   17.52314 (323) obj. 67889 iterations 1607
Cbc0038I Pass 151: (573.98 seconds) suminf.   17.05892 (342) obj. 67889.6 iterations 500
Cbc0038I Pass 152: (574.05 seconds) suminf.   15.71888 (339) obj. 67889.6 iterations 76
Cbc0038I Pass 153: (574.52 seconds) suminf.   15.92843 (320) obj. 67889.6 iterations 551
Cbc0038I Pass 154: (574.69 seconds) suminf.   14.67801 (310) obj. 67889.6 iterations 214
Cbc0038I Pass 155: (574.80 seconds) suminf.   15.57040 (297) obj. 67889.6 iterations 167
Cbc0038I Pass 156: (574.85 seconds) suminf.   14.59418 (295) obj. 67889.6 iterations 53
Cbc0038I Pass 157: (574.89 seconds) suminf.   13.57165 (292) obj. 67889.6 iterations 36
Cbc0038I Pass 158: (575.34 seconds) suminf.   17.53324 (294) obj. 67889.6 iterations 678
Cbc0038I Pass 159: (575.64 seconds) suminf.   14.74890 (297) obj. 67889.6 iterations 503
Cbc0038I Pass 160: (575.98 seconds) suminf.   14.44865 (298) obj. 67889.6 iterations 461
Cbc0038I Pass 161: (577.02 seconds) suminf.   13.09172 (292) obj. 67889.6 iterations 1524
Cbc0038I Pass 162: (577.46 seconds) suminf.   12.36306 (292) obj. 67889.6 iterations 810
Cbc0038I Pass 163: (580.21 seconds) suminf.   15.50938 (291) obj. 67889.6 iterations 3781
Cbc0038I Pass 164: (580.75 seconds) suminf.   11.13913 (282) obj. 67889.6 iterations 894
Cbc0038I Pass 165: (580.78 seconds) suminf.   10.89260 (287) obj. 67889.6 iterations 15
Cbc0038I Pass 166: (581.01 seconds) suminf.    8.52901 (232) obj. 67889.6 iterations 396
Cbc0038I Pass 167: (584.79 seconds) suminf.    8.32304 (258) obj. 67889.6 iterations 3903
Cbc0038I Pass 168: (585.58 seconds) suminf.    8.56946 (222) obj. 67889.6 iterations 1081
Cbc0038I Pass 169: (586.10 seconds) suminf.    7.57891 (222) obj. 67889.6 iterations 829
Cbc0038I Pass 170: (587.23 seconds) suminf.    7.45360 (199) obj. 67889.6 iterations 2024
Cbc0038I Pass 171: (587.26 seconds) suminf.    7.45360 (199) obj. 67889.6 iterations 24
Cbc0038I Pass 172: (588.90 seconds) suminf.    6.41310 (189) obj. 67889.6 iterations 2549
Cbc0038I Pass 173: (589.31 seconds) suminf.    4.88604 (187) obj. 67889.6 iterations 401
Cbc0038I Pass 174: (590.02 seconds) suminf.    4.17154 (179) obj. 67889.6 iterations 1025
Cbc0038I Pass 175: (590.11 seconds) suminf.    4.17154 (179) obj. 67889.6 iterations 96
Cbc0038I Pass 176: (591.07 seconds) suminf.    3.42862 (142) obj. 67889.6 iterations 1139
Cbc0038I Pass 177: (591.12 seconds) suminf.    3.42225 (142) obj. 67889.6 iterations 49
Cbc0038I Pass 178: (593.23 seconds) suminf.    2.54698 (132) obj. 67889.6 iterations 2565
Cbc0038I Pass 179: (593.30 seconds) suminf.    2.54698 (132) obj. 67889.6 iterations 41
Cbc0038I Pass 180: (594.47 seconds) suminf.    3.97537 (101) obj. 67889.6 iterations 1519
Cbc0038I Pass 181: (594.82 seconds) suminf.    2.21367 (104) obj. 67889.6 iterations 453
Cbc0038I Pass 182: (594.95 seconds) suminf.    1.93758 (90) obj. 67889.6 iterations 154
Cbc0038I Pass 183: (595.03 seconds) suminf.    1.93758 (90) obj. 67889.6 iterations 92
Cbc0038I Pass 184: (595.37 seconds) suminf.    1.54371 (82) obj. 67889.6 iterations 435
Cbc0038I Pass 185: (595.49 seconds) suminf.    1.47651 (84) obj. 67889.6 iterations 121
Cbc0038I Pass 186: (595.68 seconds) suminf.    2.86646 (64) obj. 67889.6 iterations 237
Cbc0038I Pass 187: (595.74 seconds) suminf.    2.86646 (64) obj. 67889.6 iterations 83
Cbc0038I Pass 188: (595.92 seconds) suminf.    2.45860 (78) obj. 67889.6 iterations 298
Cbc0038I Pass 189: (596.03 seconds) suminf.    2.38794 (80) obj. 67889.6 iterations 138
Cbc0038I Pass 190: (604.62 seconds) suminf.    4.90722 (112) obj. 67889.6 iterations 9810
Cbc0038I Pass 191: (604.74 seconds) suminf.    4.70627 (113) obj. 67889.6 iterations 226
Cbc0038I Pass 192: (605.22 seconds) suminf.    2.17320 (62) obj. 67889.6 iterations 662
Cbc0038I Pass 193: (605.26 seconds) suminf.    2.17320 (62) obj. 67889.6 iterations 13
Cbc0038I Pass 194: (608.22 seconds) suminf.    3.59997 (68) obj. 67889.6 iterations 3148
Cbc0038I Pass 195: (619.65 seconds) suminf.    3.85415 (55) obj. 67889.6 iterations 16168
Cbc0038I Pass 196: (619.68 seconds) suminf.    3.85415 (55) obj. 67889.6 iterations 9
Cbc0038I Pass 197: (620.05 seconds) suminf.    1.30384 (29) obj. 67889.6 iterations 398
Cbc0038I Pass 198: (620.14 seconds) suminf.    1.35216 (39) obj. 67889.6 iterations 83
Cbc0038I Pass 199: (620.32 seconds) suminf.    1.12242 (27) obj. 67889.6 iterations 219
Cbc0038I Pass 200: (620.40 seconds) suminf.    1.02187 (29) obj. 67889.6 iterations 88
Cbc0038I Pass 201: (620.51 seconds) suminf.    2.09617 (15) obj. 67889.6 iterations 122
Cbc0038I Pass 202: (620.58 seconds) suminf.    1.21833 (15) obj. 67889.6 iterations 46
Cbc0038I Pass 203: (620.76 seconds) suminf.    0.49000 (4) obj. 67889.6 iterations 165
Cbc0038I Pass 204: (620.81 seconds) suminf.    0.49000 (4) obj. 67889.6 iterations 30
Cbc0038I Pass 205: (620.84 seconds) suminf.    0.50087 (6) obj. 67889.6 iterations 8
Cbc0038I Pass 206: (625.91 seconds) suminf.    7.31022 (92) obj. 67889.6 iterations 6674
Cbc0038I Pass 207: (630.55 seconds) suminf.    3.19547 (39) obj. 67889.6 iterations 5262
Cbc0038I Pass 208: (644.28 seconds) suminf.    0.49000 (4) obj. 67889.6 iterations 16930
Cbc0038I Pass 209: (645.43 seconds) suminf.    0.50087 (6) obj. 67889.6 iterations 1290
Cbc0038I Pass 210: (648.13 seconds) suminf.   21.01199 (144) obj. 67889.6 iterations 4423
Cbc0038I Pass 211: (651.04 seconds) suminf.    8.58546 (90) obj. 67889.6 iterations 3060
Cbc0038I Pass 212: (657.12 seconds) suminf.    1.06111 (34) obj. 67889.6 iterations 6496
Cbc0038I Pass 213: (657.15 seconds) suminf.    1.06213 (36) obj. 67889.6 iterations 17
Cbc0038I Pass 214: (658.08 seconds) suminf.    2.78009 (42) obj. 67889.6 iterations 1004
Cbc0038I Pass 215: (661.87 seconds) suminf.    4.88626 (35) obj. 67889.6 iterations 3591
Cbc0038I Pass 216: (664.14 seconds) suminf.    4.79934 (54) obj. 67889.6 iterations 2608
Cbc0038I Pass 217: (681.81 seconds) suminf.    2.59253 (38) obj. 67889.6 iterations 17503
Cbc0038I Pass 218: (681.84 seconds) suminf.    2.59253 (35) obj. 67889.6 iterations 2
Cbc0038I Pass 219: (692.92 seconds) suminf.    1.97706 (21) obj. 67889.6 iterations 13494
Cbc0038I Pass 220: (692.97 seconds) suminf.    1.97706 (21) obj. 67889.6 iterations 31
Cbc0038I Pass 221: (700.30 seconds) suminf.    0.60426 (11) obj. 67889.6 iterations 8666
Cbc0038I Pass 222: (700.34 seconds) suminf.    0.60426 (11) obj. 67889.6 iterations 12
Cbc0038I Pass 223: (700.49 seconds) suminf.    1.00048 (7) obj. 67889.6 iterations 165
Cbc0038I Pass 224: (700.61 seconds) suminf.    1.05720 (7) obj. 67889.6 iterations 86
Cbc0038I Pass 225: (708.90 seconds) suminf.   11.08977 (104) obj. 67889.6 iterations 10078
Cbc0038I Pass 226: (712.55 seconds) suminf.    7.61452 (82) obj. 67889.6 iterations 4716
Cbc0038I Pass 227: (731.33 seconds) suminf.    1.37331 (20) obj. 67889.6 iterations 24565
Cbc0038I Pass 228: (731.99 seconds) suminf.    1.24913 (18) obj. 67889.6 iterations 702
Cbc0038I Pass 229: (732.15 seconds) suminf.    1.05720 (7) obj. 67889.6 iterations 176
Cbc0038I Pass 230: (732.17 seconds) suminf.    1.05720 (7) obj. 67889.6 iterations 1
Cbc0038I Pass 231: (732.35 seconds) suminf.    1.00048 (7) obj. 67889.6 iterations 215
Cbc0038I Pass 232: (735.77 seconds) suminf.    4.09631 (100) obj. 67889.6 iterations 3851
Cbc0038I Pass 233: (740.52 seconds) suminf.    1.09192 (11) obj. 67889.6 iterations 5690
Cbc0038I Pass 234: (740.93 seconds) suminf.    1.05720 (7) obj. 67889.6 iterations 343
Cbc0038I Pass 235: (741.14 seconds) suminf.    1.00048 (7) obj. 67889.6 iterations 171
Cbc0038I Pass 236: (743.83 seconds) suminf.    4.75410 (72) obj. 67889.6 iterations 2860
Cbc0038I Pass 237: (747.01 seconds) suminf.    3.55483 (47) obj. 67889.6 iterations 3343
Cbc0038I Pass 238: (756.79 seconds) suminf.    4.93346 (42) obj. 67889.6 iterations 11195
Cbc0038I Pass 239: (757.22 seconds) suminf.    4.86414 (39) obj. 67889.6 iterations 453
Cbc0038I Pass 240: (762.84 seconds) suminf.   19.95635 (140) obj. 67889.6 iterations 8135
Cbc0038I No solution found this major pass
Cbc0038I Before mini branch and bound, 2834 integers at bound fixed and 0 continuous
Cbc0038I Mini branch and bound did not improve solution (762.88 seconds)
Cbc0038I After 762.88 seconds - Feasibility pump exiting with objective of 73617 - took 446.83 seconds
Cbc0012I Integer solution of 73617 found by feasibility pump after 0 iterations and 0 nodes (762.89 seconds)
Cbc0031I 121 added rows had average density of 5.446281
Cbc0013I At root node, 121 cuts changed objective from 44983.8 to 45404.485 in 10 passes
Cbc0014I Cut generator 0 (Probing) - 78 row cuts average 3.5 elements, 39 column cuts (39 active)  in 1.672 seconds - new frequency is 1
Cbc0014I Cut generator 1 (Gomory) - 198 row cuts average 4.8 elements, 0 column cuts (0 active)  in 5.146 seconds - new frequency is 1
Cbc0014I Cut generator 2 (Knapsack) - 0 row cuts average 0.0 elements, 0 column cuts (0 active)  in 0.057 seconds - new frequency is -100
Cbc0014I Cut generator 3 (Clique) - 0 row cuts average 0.0 elements, 0 column cuts (0 active)  in 0.653 seconds - new frequency is -100
Cbc0014I Cut generator 4 (MixedIntegerRounding2) - 0 row cuts average 0.0 elements, 0 column cuts (0 active)  in 0.104 seconds - new frequency is -100
Cbc0014I Cut generator 5 (FlowCover) - 0 row cuts average 0.0 elements, 0 column cuts (0 active)  in 0.055 seconds - new frequency is -100
Cbc0014I Cut generator 6 (TwoMirCuts) - 201 row cuts average 5.2 elements, 0 column cuts (0 active)  in 8.404 seconds - new frequency is 1
Cbc0014I Cut generator 7 (ZeroHalf) - 1 row cuts average 132.0 elements, 0 column cuts (0 active)  in 1.608 seconds - new frequency is -100
Cbc0010I After 0 nodes, 1 on tree, 73617 best solution, best possible 45404.485 (891.33 seconds)
Cbc0020I Exiting on maximum time
Cbc0005I Partial search - best objective 73617 (best possible 45404.485), took 429184 iterations and 5 nodes (1580.91 seconds)
Cbc0032I Strong branching done 8 times (124 iterations), fathomed 0 nodes and fixed 0 variables
Cbc0035I Maximum depth 3, 0 variables fixed on reduced cost
Cuts at root node changed objective from 44983.8 to 45404.5
Probing was tried 32 times and created 198 cuts of which 0 were active after adding rounds of cuts (1.855 seconds)
Gomory was tried 32 times and created 216 cuts of which 0 were active after adding rounds of cuts (10.786 seconds)
Knapsack was tried 10 times and created 0 cuts of which 0 were active after adding rounds of cuts (0.057 seconds)
Clique was tried 10 times and created 0 cuts of which 0 were active after adding rounds of cuts (0.653 seconds)
MixedIntegerRounding2 was tried 10 times and created 0 cuts of which 0 were active after adding rounds of cuts (0.104 seconds)
FlowCover was tried 10 times and created 0 cuts of which 0 were active after adding rounds of cuts (0.055 seconds)
TwoMirCuts was tried 32 times and created 472 cuts of which 0 were active after adding rounds of cuts (17.489 seconds)
ZeroHalf was tried 1 times and created 1 cuts of which 0 were active after adding rounds of cuts (1.608 seconds)

Result - Stopped on time limit

Objective value:                73617.00000000
Lower bound:                    45404.485
Gap:                            0.62
Enumerated nodes:               5
Total iterations:               429184
Time (CPU seconds):             1594.60
Time (Wallclock seconds):       1595.97

Total time (CPU seconds):       1594.67   (Wallclock seconds):       1596.07

